9
1 0 16
2 0 7
2 1 42
3 0 32
3 1 7
3 2 52
4 0 55
4 1 19
4 2 61
4 3 52
5 0 19
5 1 39
5 2 3
5 3 20
5 4 40
6 0 50
6 1 15
6 2 53
6 3 4
6 4 31
6 5 45
7 0 13
7 1 52
7 2 38
7 3 35
7 4 33
7 5 18
7 6 17
8 0 58
8 1 20
8 2 55
8 3 29
8 4 5
8 5 42
8 6 30
8 7 41
